32      2       
19      17      
0       0       0       3       2       3       4       
7       0       2       3       10      14      16      
6       7       0       1       5       
8       8       0       2       17      27      
3       0       2       3       6       7       8       
10      3       0       1       12      
8       10      0       1       11      
5       10      0       1       9       
7       0       3       3       21      24      25      
5       4       0       2       13      20      
3       9       0       2       17      30      
10      6       0       2       15      24      
8       0       9       1       29      
9       0       4       2       18      19      
5       0       8       1       22      
1       6       0       2       17      18      
3       0       6       1       23      
10      4       0       1       27      
7       1       0       1       31      
8       0       9       1       25      
2       0       9       1       28      
6       0       5       1       23      
9       8       0       2       28      29      
4       0       7       1       27      
1       0       8       3       26      30      31      
10      0       5       1       29      
4       6       0       1       30      
7       10      0       1       31      
6       0       4       1       32      
7       2       0       1       32      
4       0       3       1       32      
0       0       0       0       